87202540055707651855012,1,1,2,03,4,1,2,02,13,1,2,01,10,1,2,05,4,1,2,01,8,1,2,08,15,1,2,08,13,1,2,04,7,1,2,01,2,1,2,08,4,1,2,03,8,1,2,012,15,1,2,02,7,1,2,013,3,1,2,012,10,1,2,012,2,1,2,011,4,1,2,015,9,1,2,013,15,1,2,07,2,1,2,01,4,1,2,03,7,1,2,02,10,1,2,09,3,1,2,02,10,1,2,014,2,1,2,013,7,1,2,02,1,1,2,014,3,1,2,013,3,1,2,015,5,1,2,010,13,1,2,09,9,1,2,07,11,1,2,01,9,1,2,06,2,1,2,01,10,1,2,015,6,1,2,02,4,1,2,08,10,1,2,012,5,1,2,015,10,1,2,010,12,1,2,01,7,1,2,06,7,1,2,02,9,1,2,09,4,1,2,02,8,1,2,011,14,1,2,0